c Reduced graph for GEOM40a_0 generated by Cyril Grelier
p edge 40 146
e 1 2
e 1 3
e 1 4
e 1 5
e 1 6
e 1 7
e 1 9
e 1 10
e 1 22
e 1 24
e 1 25
e 1 34
e 2 3
e 2 4
e 2 5
e 2 6
e 2 7
e 2 10
e 2 18
e 2 22
e 2 24
e 2 27
e 2 30
e 3 4
e 3 6
e 3 7
e 3 9
e 3 10
e 3 22
e 3 24
e 3 25
e 3 34
e 4 5
e 4 6
e 4 7
e 4 9
e 4 10
e 4 18
e 4 27
e 4 30
e 5 6
e 5 7
e 5 10
e 5 18
e 5 22
e 5 27
e 5 30
e 6 7
e 6 9
e 6 18
e 6 27
e 6 30
e 7 9
e 7 10
e 7 31
e 7 32
e 8 12
e 8 13
e 8 15
e 8 16
e 8 20
e 8 21
e 8 23
e 8 26
e 8 29
e 9 10
e 9 25
e 9 31
e 9 34
e 10 22
e 10 24
e 11 14
e 11 17
e 11 19
e 11 28
e 11 31
e 11 32
e 11 33
e 11 35
e 11 36
e 12 13
e 12 15
e 12 16
e 12 20
e 12 21
e 12 23
e 12 26
e 13 15
e 13 20
e 13 21
e 13 23
e 13 26
e 13 29
e 14 17
e 14 19
e 14 28
e 14 31
e 14 32
e 14 33
e 14 35
e 15 16
e 15 20
e 15 21
e 15 23
e 15 26
e 16 21
e 16 23
e 16 25
e 16 26
e 16 34
e 17 19
e 17 28
e 17 29
e 17 33
e 17 35
e 17 36
e 18 22
e 18 27
e 18 30
e 19 31
e 19 32
e 19 33
e 19 35
e 20 28
e 20 29
e 20 36
e 21 23
e 21 26
e 22 24
e 23 26
e 24 25
e 24 38
e 25 34
e 25 37
e 27 30
e 28 29
e 28 36
e 29 36
e 31 32
e 33 35
e 37 38
e 37 39
e 37 40
e 38 39
e 38 40
e 39 40
